# This file was generated by FitSNAP.
# Hash: 06f9be0470331868cb3ef793ec5d3fdd

pair_style hybrid/overlay zbl 4.0 4.8 snap
pair_coeff * * zbl 73 73
pair_coeff * * snap Ta_pot.snapcoeff Ta_pot.snapparam Ta