# This file was generated by FitSNAP.
# Hash: ec72ebe699d3509280567b446d474281

pair_style hybrid/overlay zbl 4.0 4.8 snap
pair_coeff * * zbl 73 73
pair_coeff * * snap Ta_pot.snapcoeff Ta_pot.snapparam Ta