# This file was generated by FitSNAP.
# Hash: 196e6d4c106cb0ff1573353e19e67af1

pair_style hybrid/overlay zbl 4.0 4.8 snap
pair_coeff * * zbl 73 73
pair_coeff * * snap Ta_pot.snapcoeff Ta_pot.snapparam Ta