pymatgen with grid density = 1539 / number of atoms
0
Gamma
10 11 12
