Zr1
1.0
   1.5263910514798107    0.0000000000000000    0.9318593496672968
   0.7362516150186513    1.3370848218116866    0.6471245233053965
   0.0000000000000000    0.0000000000000000    1.5789800000000001
Zr
1
direct
   0.0000000000000000    0.0000000000000000    0.0000000000000000 Zr
