pymatgen with grid density = 847 / number of atoms
0
Gamma
10 10 7
