Zr1
1.0
   1.6375000000000000    0.0000000000000000    0.0000000000000001
  -0.0000000000000001    1.6375000000000000    0.0000000000000001
   0.0000000000000000    0.0000000000000000    2.1833300000000002
Zr
1
direct
   0.0000000000000000    0.0000000000000000    0.0000000000000000 Zr
