pymatgen with grid density = 698 / number of atoms
0
Monkhorst
8 8 8
