Zr1
1.0
   3.2659892474370151    0.0000000000000000   -1.1546874233427002
  -1.6329679447084906    2.8284450597331263   -1.1546874233427002
   0.0000000000000000    0.0000000000000000    3.4641000000000002
Zr
1
direct
   0.0000000000000000    0.0000000000000000    0.0000000000000000 Zr
