# This file was generated by FitSNAP.
# Hash: d2f57f2933cb851bf5d387d1e6456b53

pair_style hybrid/overlay zbl 4.0 4.8 snap
pair_coeff * * zbl 73 73
pair_coeff * * snap Ta_pot.snapcoeff Ta_pot.snapparam Ta