# This file was generated by FitSNAP.
# Hash: 19789108427107e417ec6dbb224bf267

pair_style hybrid/overlay zbl 4.0 4.8 snap
pair_coeff * * zbl 73 73
pair_coeff * * snap Ta_pot.snapcoeff Ta_pot.snapparam Ta