pymatgen with grid density = 2148 / number of atoms
0
Gamma
14 14 9
