Zr1
1.0
   2.0000000000000000    0.0000000000000000    0.0000000000000001
  -0.9999999999999998    1.7320508075688774    0.0000000000000001
   0.0000000000000000    0.0000000000000000    3.0000000000000000
Zr
1
direct
   0.0000000000000000    0.0000000000000000    0.0000000000000000 Zr
