pymatgen with grid density = 1059 / number of atoms
0
Gamma
11 11 7
