Zr1
1.0
   1.5333300000000001    0.0000000000000000    0.0000000000000001
  -0.7666649999999998    1.3279027323847934    0.0000000000000001
   0.0000000000000000    0.0000000000000000    2.2999999999999998
Zr
1
direct
   0.0000000000000000    0.0000000000000000    0.0000000000000000 Zr
