# This file was generated by FitSNAP.
# Hash: 363170db7d63040bb4975206b9129dee

pair_style hybrid/overlay zbl 4.0 4.8 snap
pair_coeff * * zbl 73 73
pair_coeff * * snap Ta_pot.snapcoeff Ta_pot.snapparam Ta