# This file was generated by FitSNAP.
# Hash: 6a8567600ca917721cf1cbe126e74c34

pair_style hybrid/overlay zbl 4.0 4.8 snap
pair_coeff * * zbl 73 73
pair_coeff * * snap Ta_pot.snapcoeff Ta_pot.snapparam Ta