pymatgen with grid density = 115 / number of atoms
0
Gamma
5 4 3
