Zr1
1.0
   2.9388039755483586    0.0000000000000000   -0.2787044194144754
  -1.5784182903254804    3.2683370224112722    0.2238732344470904
   0.0000000000000000    0.0000000000000000    4.4861100000000000
Zr
1
direct
   0.0000000000000000    0.0000000000000000    0.0000000000000000 Zr
