&CONTROL
  calculation  =  "vc-relax", 
  etot_conv_thr  =  1.000000000000D-05, 
  forc_conv_thr  =  1.000000000000D-04, 
  tprnfor  =  .true., 
  outdir  =  "./out", 
  tstress  =  .true., 
/

&SYSTEM
  ecutwfc  =  8.000000000000D+01, 
  ecutrho  =  3.200000000000D+02, 
  ibrav  =  0, 
  nosym  =  .true., 
  nat  =  1, 
  ntyp  =  1, 
  nspin  =  2, 
  occupations  =  "smearing", 
  smearing  =  "mv", 
  degauss  =  1.000000000000D-02, 
  starting_magnetization(1)  =  2.500000000000D+00, 
/

&ELECTRONS
  mixing_mode  =  "TF", 
  conv_thr  =  1.000000000000D-06, 
  scf_must_converge  =  .true., 
/

&IONS
  ion_dynamics  =  "bfgs", 
  upscale  =  1000, 
/

&CELL
  cell_dofree  =  "all", 
  cell_dynamics  =  "bfgs", 
/

ATOMIC_SPECIES
  Si  28.085000000000  Si.upf

ATOMIC_POSITIONS crystal
  Si    0.000000000000   0.000000000000   0.000000000000  1   1   1 


CELL_PARAMETERS bohr
  4.169415832207  0.000000000000  0.000000000000
  2.251216460156  3.142020623247  0.000000000000
  1.918202067991  0.393293062544  3.117314400976

K_POINTS automatic 
  11  12  12    0  0  0
