pymatgen with grid density = 672 / number of atoms
0
Monkhorst
10 10 6
