Zr1
1.0
   1.6521699999999999    0.0000000000000000    0.0000000000000001
  -0.2979363278734211    1.6250845065513673    0.0000000000000001
   0.0000000000000000    0.0000000000000000    2.7500000000000000
Zr
1
direct
   0.0000000000000000    0.0000000000000000    0.0000000000000000 Zr
