pymatgen with grid density = 1962 / number of atoms
0
Monkhorst
12 12 12
