Zr1
1.0
   1.3371942961915553    0.0000000000000000   -0.7131556945245341
  -0.4813738595202556    1.2475447058674096   -0.7131556945245341
   0.0000000000000000    0.0000000000000000    1.5154799999999999
Zr
1
direct
   0.0000000000000000    0.0000000000000000    0.0000000000000000 Zr
