pymatgen with grid density = 534 / number of atoms
0
Gamma
8 8 7
