Zr1
1.0
   3.1310380134930309    0.0000000000000000    0.8169399596430692
   0.2187085892572432    3.3353359209207123    0.0165680174157313
   0.0000000000000000    0.0000000000000000    4.0000000000000000
Zr
1
direct
   0.0000000000000000    0.0000000000000000    0.0000000000000000 Zr
