Zr1
1.0
   2.9914628220082058    0.0000000000000000   -0.1609593384762255
  -1.4317934259023180    3.3925341315657578    0.3542601328180597
   0.0000000000000000    0.0000000000000000    4.5709799999999996
Zr
1
direct
   0.0000000000000000    0.0000000000000000    0.0000000000000000 Zr
