# This file was generated by FitSNAP.
# Hash: cb26fdbb2c42a2bfbc0f428e5a5f5777

pair_style hybrid/overlay zbl 4.0 4.8 snap
pair_coeff * * zbl 73 73
pair_coeff * * snap Ta_pot.snapcoeff Ta_pot.snapparam Ta