pymatgen with grid density = 367 / number of atoms
0
Monkhorst
6 8 6
