Zr1
1.0
   3.9033421928515462    0.0000000000000000   -1.4207003723533294
  -0.0000000000000002    3.4615399999999998    0.0000000000000002
   0.0000000000000000    0.0000000000000000    4.5000000000000000
Zr
1
direct
   0.0000000000000000    0.0000000000000000    0.0000000000000000 Zr
