# This file was generated by FitSNAP.
# Hash: d65c47fe4e9509d2e6a8ef278b7ad8d0

pair_style hybrid/overlay zbl 4.0 4.8 snap
pair_coeff * * zbl 73 73
pair_coeff * * snap Ta_pot.snapcoeff Ta_pot.snapparam Ta