pymatgen with grid density = 1909 / number of atoms
0
Gamma
8 8 11
