pymatgen with grid density = 1108 / number of atoms
0
Gamma
11 10 9
