Zr1
1.0
   1.4872493458491183    0.0000000000000000    0.3880481218500748
   0.1038861545901395    1.5842780764465991    0.0078697760538263
   0.0000000000000000    0.0000000000000000    1.8999999999999999
Zr
1
direct
   0.0000000000000000    0.0000000000000000    0.0000000000000000 Zr
