# This file was generated by FitSNAP.
# Hash: b6e6f530720b16bb63fdf39481351025

pair_style hybrid/overlay zbl 4.0 4.8 snap
pair_coeff * * zbl 73 73
pair_coeff * * snap Ta_pot.snapcoeff Ta_pot.snapparam Ta