pymatgen with grid density = 1104 / number of atoms
0
Monkhorst
10 10 10
