Zr1
1.0
   1.6499999999999999    0.0000000000000000    0.0000000000000001
  -0.0000000000000001    1.6499999999999999    0.0000000000000001
   0.0000000000000000    0.0000000000000000    1.6499999999999999
Zr
1
direct
   0.0000000000000000    0.0000000000000000    0.0000000000000000 Zr
