pymatgen with grid density = 2791 / number of atoms
0
Monkhorst
14 14 14
