Zr1
1.0
   2.0000000000000000    0.0000000000000000    0.0000000000000001
  -0.0000000000000001    2.0000000000000000    0.0000000000000001
   0.0000000000000000    0.0000000000000000    2.0000000000000000
Zr
1
direct
   0.0000000000000000    0.0000000000000000    0.0000000000000000 Zr
