pymatgen with grid density = 119 / number of atoms
0
Gamma
6 4 3
