Zr1
1.0
   2.9178673043099237    0.0000000000000000   -0.3248987602917870
  -1.6381587640821731    3.2148404144669849    0.1724283215440773
   0.0000000000000000    0.0000000000000000    4.4527700000000001
Zr
1
direct
   0.0000000000000000    0.0000000000000000    0.0000000000000000 Zr
