# This file was generated by FitSNAP.
# Hash: 6b9e6d718a8c2d013336d77eb793095a

pair_style hybrid/overlay zbl 4.0 4.8 snap
pair_coeff * * zbl 73 73
pair_coeff * * snap Ta_pot.snapcoeff Ta_pot.snapparam Ta