Zr1
1.0
   3.1240999999999999    0.0000000000000000    0.0000000000000002
  -0.5633699207160006    3.0728838478589533    0.0000000000000002
   0.0000000000000000    0.0000000000000000    5.2000000000000002
Zr
1
direct
   0.0000000000000000    0.0000000000000000    0.0000000000000000 Zr
