pymatgen with grid density = 399 / number of atoms
0
Monkhorst
8 8 6
