Zr1
1.0
   3.4750000000000001    0.0000000000000000    0.0000000000000002
  -0.0000000000000002    3.4750000000000001    0.0000000000000002
   0.0000000000000000    0.0000000000000000    4.6333299999999999
Zr
1
direct
   0.0000000000000000    0.0000000000000000    0.0000000000000000 Zr
