# This file was generated by FitSNAP.
# Hash: 13d0aebb6f9d6f95e156cdb3e694e94b

pair_style hybrid/overlay zbl 4.0 4.8 snap
pair_coeff * * zbl 73 73
pair_coeff * * snap Ta_pot.snapcoeff Ta_pot.snapparam Ta