# This file was generated by FitSNAP.
# Hash: a0c4733dab7257f7822fa6fddd91feb6

pair_style hybrid/overlay zbl 4.0 4.8 snap
pair_coeff * * zbl 73 73
pair_coeff * * snap Ta_pot.snapcoeff Ta_pot.snapparam Ta