pymatgen with grid density = 613 / number of atoms
0
Gamma
9 8 7
