Zr1
1.0
   1.7307699999999999    0.0000000000000000    0.0000000000000001
  -0.0000000000000001    2.0769199999999999    0.0000000000000001
   0.0000000000000000    0.0000000000000000    2.2500000000000000
Zr
1
direct
   0.0000000000000000    0.0000000000000000    0.0000000000000000 Zr
