pymatgen with grid density = 894 / number of atoms
0
Gamma
9 9 10
