Zr1
1.0
   3.0200412897370232    0.0000000000000000    1.8437304840685187
   1.4567115010849756    2.6454907508894183    1.2803689886768164
   0.0000000000000000    0.0000000000000000    3.1240999999999999
Zr
1
direct
   0.0000000000000000    0.0000000000000000    0.0000000000000000 Zr
