pymatgen with grid density = 863 / number of atoms
0
Gamma
9 11 8
