Zr1
1.0
   1.7781897432393823    0.0000000000000000   -0.6472081374165962
  -0.0000000000000001    1.5769200000000001    0.0000000000000001
   0.0000000000000000    0.0000000000000000    2.0499999999999998
Zr
1
direct
   0.0000000000000000    0.0000000000000000    0.0000000000000000 Zr
