pymatgen with grid density = 1586 / number of atoms
0
Gamma
11 11 11
