Zr1
1.0
   1.5387538302259154    0.0000000000000000   -0.4886535790977853
  -0.5720403191512612    1.2593663230995100   -0.8326535941843662
   0.0000000000000000    0.0000000000000000    1.6144799999999999
Zr
1
direct
   0.0000000000000000    0.0000000000000000    0.0000000000000000 Zr
