# This file was generated by FitSNAP.
# Hash: 28a79985bc7068ea00954900daf814d2

pair_style hybrid/overlay zbl 4.0 4.8 snap
pair_coeff * * zbl 73 73
pair_coeff * * snap Ta_pot.snapcoeff Ta_pot.snapparam Ta