# This file was generated by FitSNAP.
# Hash: 76fbafa3b55bb3af2d780b9dff2b582a

pair_style hybrid/overlay zbl 4.0 4.8 snap
pair_coeff * * zbl 73 73
pair_coeff * * snap Ta_pot.snapcoeff Ta_pot.snapparam Ta