# This file was generated by FitSNAP.
# Hash: d88c18d79d5dea489ab5ed9f29ebb597

pair_style hybrid/overlay zbl 4.0 4.8 snap
pair_coeff * * zbl 73 73
pair_coeff * * snap Ta_pot.snapcoeff Ta_pot.snapparam Ta