pymatgen with grid density = 476 / number of atoms
0
Gamma
9 9 5
