Zr1
1.0
   3.0143357596230991    0.0000000000000000   -0.8208414818084171
   0.3603535115245328    2.9927187336056997   -0.8208414818084171
   0.0000000000000000    0.0000000000000000    5.2000000000000002
Zr
1
direct
   0.0000000000000000    0.0000000000000000    0.0000000000000000 Zr
