Zr1
1.0
   3.2066711800198751    0.0000000000000000   -1.0183249057299668
  -1.1920978971421357    2.6244442834484416   -1.7352004141032509
   0.0000000000000000    0.0000000000000000    3.3644799999999999
Zr
1
direct
   0.0000000000000000    0.0000000000000000    0.0000000000000000 Zr
