pymatgen with grid density = 2407 / number of atoms
0
Gamma
13 13 13
