Zr1
1.0
   1.2370566675278056    0.0000000000000000    0.7142150000000002
   0.4123522225092687    1.1663082110945917    0.7142150000000002
   0.0000000000000000    0.0000000000000000    1.4284300000000001
Zr
1
direct
   0.0000000000000000    0.0000000000000000    0.0000000000000000 Zr
