# This file was generated by FitSNAP.
# Hash: 3b704164975a57ada5af589dc6bfc1d9

pair_style hybrid/overlay zbl 4.0 4.8 snap
pair_coeff * * zbl 73 73
pair_coeff * * snap Ta_pot.snapcoeff Ta_pot.snapparam Ta