pymatgen with grid density = 8593 / number of atoms
0
Gamma
14 14 19
