Zr2
1.0
   2.0000000000000000    0.0000000000000000    0.0000000000000001
  -0.9999999999999998    1.7320508075688774    0.0000000000000001
   0.0000000000000000    0.0000000000000000    1.5000000000000000
Zr
2
direct
   0.3333333333333333    0.6666666666666666    0.7500000000000000 Zr
   0.6666666666666666    0.3333333333333333    0.2500000000000000 Zr
