&CONTROL
  calculation  =  "vc-relax", 
  etot_conv_thr  =  1.000000000000D-05, 
  forc_conv_thr  =  1.000000000000D-04, 
  tprnfor  =  .true., 
  outdir  =  "./out", 
  tstress  =  .true., 
/

&SYSTEM
  ecutwfc  =  8.000000000000D+01, 
  ecutrho  =  3.200000000000D+02, 
  ibrav  =  0, 
  nosym  =  .true., 
  nat  =  1, 
  ntyp  =  1, 
  nspin  =  2, 
  occupations  =  "smearing", 
  smearing  =  "mv", 
  degauss  =  1.000000000000D-02, 
  starting_magnetization(1)  =  2.500000000000D+00, 
/

&ELECTRONS
  mixing_mode  =  "TF", 
  conv_thr  =  1.000000000000D-06, 
  scf_must_converge  =  .true., 
/

&IONS
  ion_dynamics  =  "bfgs", 
  upscale  =  1000, 
/

&CELL
  cell_dofree  =  "all", 
  cell_dynamics  =  "bfgs", 
/

ATOMIC_SPECIES
  V  50.941500000000  V.upf

ATOMIC_POSITIONS crystal
  V    0.000000000000   0.000000000000   0.000000000000  1   1   1 


CELL_PARAMETERS bohr
  5.208878509497  0.000000000000  0.000000000000
  0.939309732942  5.123486366948  0.000000000000
  -2.278015180508  -1.898344562788  8.147203467033

K_POINTS automatic 
  8  8  5    0  0  0
