# This file was generated by FitSNAP.
# Hash: e9a636abde5ceffd19fab553c2824d23

pair_style hybrid/overlay zbl 4.0 4.8 snap
pair_coeff * * zbl 73 73
pair_coeff * * snap Ta_pot.snapcoeff Ta_pot.snapparam Ta