pymatgen with grid density = 1789 / number of atoms
0
Gamma
14 11 10
