# This file was generated by FitSNAP.
# Hash: 0727573c62b93d00bd6bd9325d90eb86

pair_style hybrid/overlay zbl 4.0 4.8 snap
pair_coeff * * zbl 73 73
pair_coeff * * snap Ta_pot.snapcoeff Ta_pot.snapparam Ta