pymatgen with grid density = 123 / number of atoms
0
Monkhorst
6 4 4
