Zr1
1.0
   2.8970509321984381    0.0000000000000000   -0.3705297811892601
  -1.6984668051027176    3.1589928144922226    0.1214191086718953
   0.0000000000000000    0.0000000000000000    4.4197899999999999
Zr
1
direct
   0.0000000000000000    0.0000000000000000    0.0000000000000000 Zr
