pymatgen with grid density = 620 / number of atoms
0
Monkhorst
6 6 6
