Zr2
1.0
   2.4494922328260191    0.0000000000000000    1.4142150000000002
   0.8164974109420066    2.3094034243934076    1.4142150000000002
   0.0000000000000000    0.0000000000000000    2.8284300000000000
Zr
2
direct
   0.0000000000000000    0.0000000000000000    0.0000000000000000 Zr
   0.2500000000000000    0.2500000000000000    0.2500000000000000 Zr
