# This file was generated by FitSNAP.
# Hash: a39c84c9a5c0f9bea4be52ed92b747e7

pair_style hybrid/overlay zbl 4.0 4.8 snap
pair_coeff * * zbl 73 73
pair_coeff * * snap Ta_pot.snapcoeff Ta_pot.snapparam Ta