pymatgen with grid density = 1240 / number of atoms
0
Monkhorst
10 10 10
