Zr1
1.0
   2.5724940128939715    0.0000000000000000   -1.3719687256000663
  -0.9260668962666052    2.4000261561104836   -1.3719687256000663
   0.0000000000000000    0.0000000000000000    2.9154800000000001
Zr
1
direct
   0.0000000000000000    0.0000000000000000    0.0000000000000000 Zr
