# This file was generated by FitSNAP.
# Hash: 1ff4dcbe17e830a023905b31a0302d34

pair_style hybrid/overlay zbl 4.0 4.8 snap
pair_coeff * * zbl 73 73
pair_coeff * * snap Ta_pot.snapcoeff Ta_pot.snapparam Ta