# This file was generated by FitSNAP.
# Hash: 92df42e948257e103fa1424c77a3fc1b

pair_style hybrid/overlay zbl 4.0 4.8 snap
pair_coeff * * zbl 73 73
pair_coeff * * snap Ta_pot.snapcoeff Ta_pot.snapparam Ta