Zr1
1.0
   3.0231343814924649    0.0000000000000000   -0.0888584550741986
  -1.3459254399388432    3.4609645722550666    0.4336033392638156
   0.0000000000000000    0.0000000000000000    4.6228999999999996
Zr
1
direct
   0.0000000000000000    0.0000000000000000    0.0000000000000000 Zr
