Zr1
1.0
   1.6160711783816248    0.0000000000000000   -0.5713604435067470
  -0.8080223879289925    1.3995663164713925   -0.5713604435067470
   0.0000000000000000    0.0000000000000000    1.7141000000000000
Zr
1
direct
   0.0000000000000000    0.0000000000000000    0.0000000000000000 Zr
