# This file was generated by FitSNAP.
# Hash: 0617943af9b2bd7d2073582b2bd776ef

pair_style hybrid/overlay zbl 4.0 4.8 snap
pair_coeff * * zbl 73 73
pair_coeff * * snap Ta_pot.snapcoeff Ta_pot.snapparam Ta