ALGO = Fast
EDIFF = 5e-05
ENCUT = 520
IBRION = 2
ISIF = 3
ISMEAR = 1
ISPIN = 2
LASPH = True
LMAXMIX = 4
LORBIT = 11
LREAL = Auto
LWAVE = False
MAGMOM = 1*0.6
NELM = 100
NSW = 99
PREC = Accurate
SIGMA = 0.1
