pymatgen with grid density = 715 / number of atoms
0
Monkhorst
10 10 6
