Zr1
1.0
   1.5941215428368156    0.0000000000000000   -0.4340993153226249
   0.1905717682326069    1.5826894497939659   -0.4340993153226249
   0.0000000000000000    0.0000000000000000    2.7500000000000000
Zr
1
direct
   0.0000000000000000    0.0000000000000000    0.0000000000000000 Zr
