# This file was generated by FitSNAP.
# Hash: 532e640fa3df5bc79bfc307f6a30ed79

pair_style hybrid/overlay zbl 4.0 4.8 snap
pair_coeff * * zbl 73 73
pair_coeff * * snap Ta_pot.snapcoeff Ta_pot.snapparam Ta